Optimal - objective value 20752.98000000
      2 x0_3                   1         48.3000000000006
      7 x0_8                   1                   61.19
      9 x0_10                  1         17.2600000000011
     16 x1_7                   1         58.0100000000004
     20 x2_0                   1                   90.93
     33 x3_4                   1         -23.5400000000005
     40 x4_0                   1         62.6799999999995
     51 x5_1                   1                       0
     60 x6_0                   1                   48.03
     72 x7_2                   1                       0
     86 x8_6                   1                  -52.44
     95 x9_5                   1                       0
    109 x10_9                  1                       0
    110 u1                    13                       0
    111 u2                    24                       0
    112 u3                    11                       0
    113 u4                    23                       0
    114 u5                    10                       0
    115 u6       25.0000000000022                       0
    116 u7                    22                       0
    117 u8                     2                       0
    118 u9                     6                       0
    119 u10                    2                       0
